LuNiO3, low-T, P2_1/n
1.0
        5.1234998703         0.0000000000         0.0000000000
        0.0000000000         5.5089001656         0.0000000000
       -0.0166880521         0.0000000000         7.3551808822
   Lu   Ni   O
    4    4   12
Cartesian
   5.00246185  0.42418531  1.86086070
   0.10434997  5.08471473  5.49431996
   2.67444393  3.17863552  1.81672974
   2.43236789  2.33026481  5.53845136
   2.56174994  0.00000000  0.00000000
  -0.00834403  2.75445008  3.67759044
   2.55340591  0.00000000  3.67759044
   0.00000000  2.75445008  0.00000000
   0.56002379  2.54896816  1.79539968
   4.54678788  2.95993201  5.55978141
   1.99338212  5.30341824  1.88219076
   3.11342985  0.20548193  5.47298991
   3.55122302  1.72814193  0.39644425
   1.55558880  3.78075840  6.95873661
   4.12568276  4.48259185  3.28114617
   0.98112906  1.02630815  4.07403471
   0.93260966  1.11059427  6.94181952
   4.17420208  4.39830581  0.41336136
   1.60410812  3.86504444  4.09095181
   3.50270370  1.64385573  3.26422908

