  V SF test
  2.9878
 -0.5  0.5  0.5
  0.5 -0.5  0.5
  0.5  0.5 -0.5
  V
  1
Direct
  0.0  0.0  0.0

