gamma-Ce
   1.0
     2.5790000000000000    2.5790000000000000    0.0000000000000000
     0.0000000000000000    2.5790000000000000    2.5790000000000000
     2.5790000000000000    0.0000000000000000    2.5790000000000000
   Ce
    1
Direct
   0.0  0.0  0.0
