SYSTEM   = Ce
  
ISTART = 0
ISMEAR = -5
NEDOS = 3000
EDIFF = 1.E-7
LMAXMIX = 6

LORBIT = 14
EMIN = 0
EMAX = 14

NBANDS = 40

LOCPROJ = 1 : f : Pr
ISYM = -1

# SOC

MAGMOM = 3*0

LSORBIT = .TRUE.
LORBMOM = .TRUE.
SAXIS = 0 0 1
GGA_COMPAT = .FALSE.

