Automatically generated mesh
0
Gamma
 5 5 5

