Ce
1.224745
   0.00000000000000   2.17191570966075   2.17191570966075
   2.17191570966075   0.00000000000000   2.17191570966075
   2.17191570966075   2.17191570966075   0.00000000000000
1 
Direct(1) [A1] 
   0.00000000000000   0.00000000000000   0.00000000000000 
