SrVO3
1.0
        3.8420900000         0.0000000000         0.0000000000
        0.0000000000         3.8420900000         0.0000000000
        0.0000000000         0.0000000000         3.8420900000
   Sr    V    O
    1    1    3
Direct
     0.000000000         0.000000000         0.000000000
     0.500000000         0.500000000         0.500000000
     0.500000000         0.500000000         0.000000000
     0.000000000         0.500000000         0.500000000
     0.500000000         0.000000000         0.500000000
