  V SF test
  2.9878
  1.0  0.0  0.0
  0.0  1.0  0.0
  0.0  0.0  1.0
  V
  2
Direct
  0.0  0.0  0.0
  0.5  0.5  0.5

