SrVO3
   3.841
     1.0000000000000000    0.0000000000000000    0.0000000000000000
     0.0000000000000000    1.0000000000000000    0.0000000000000000
     0.0000000000000000    0.0000000000000000    1.0000000000000000
   Sr   V   O 
     1     1    3
Direct
   0.5  0.5  0.5
   0.0  0.0  0.0
   0.5  0.0  0.0
   0.0  0.5  0.0
   0.0  0.0  0.5
