Automatically generated mesh
       0
Gamma
 6 6 6